%Here we are trying to modify the default model of rcpsp
%switching the objective from makespan to profitness (NPV)

n = 5;               %njobs
d = [3,5,6,2,3];     %durations

m = 2;               %resources
L = [3,4];           % capacity by period
res = [| 1,2,2,2,1
       | 3,1,2,2,1 |];%resources by job

l = 2;               %number of predecesors
pre = [| 1,5         %(i,j) i ies predecesor of j   
       | 5,2 |];
prof = [3,4,2,5,6];   %------------PROFIT-----------------
dr = 0.09;            %----------DISCOUNT-RATE------------
maxt = 20;           %DEADLINE
